NAME : n40w80.005.488.tour
COMMENT : Length = 488
COMMENT : Found by LKH [Keld Helsgaun] Tue May  2 05:46:14 2017
TYPE : TOUR
DIMENSION : 41
TOUR_SECTION
1
30
31
17
10
38
35
9
15
7
33
23
26
8
3
19
28
29
13
5
22
4
24
2
20
39
21
14
34
18
16
27
6
25
40
36
11
41
12
32
37
-1
EOF
